40 46 100 60 42 68 50 14 86 50 28 20 82 20 94 6 50 67 81 45 25 77 97 85 29 46 42 12 88 41 52 6 46 65 69 96 82 5 99 9 26 45 51 80 77 25 43 26 78 45 35 1 79 83 24 78 25 10 9 59 2 26 21 53 10 48 31 6 94 62 42 78 62 79 50 3 1 71 78 19 56 64 30 21 57 70 20 56 98 19 1 82 2 41 18 25 11 45 100 81 